p cnf 7230 17
-3558 -3576 4143 0
3576 -4143 0
-3570 -3572 -4148 0
-3564 -3606 -4146 0
-3560 -3566 -4144 0
3570 -4149 0
3564 -4147 0
3560 -4145 0
4148 4149 0
4146 4147 0
4144 4145 0
3572 -4149 0
3606 -4147 0
3566 -4145 0
3632 -4151 0
4142 4143 0
-4142 -4143 0
